p tw 676 1348
1 302
1 303
1 425
1 426
1 500
1 501
1 601
1 602
2 617
2 618
3 632
3 633
4 255
4 256
5 619
5 620
6 76
6 328
6 329
6 432
6 433
6 448
6 507
6 508
7 233
7 234
7 444
7 445
7 461
7 462
7 519
7 520
8 544
8 545
9 316
9 317
9 397
9 398
9 462
9 463
9 530
9 531
10 570
10 571
10 623
10 624
11 586
11 587
11 642
11 643
12 337
12 338
12 650
12 651
13 234
13 235
13 398
13 399
13 463
13 464
13 531
13 532
14 235
14 236
15 359
15 360
16 638
16 639
17 284
17 285
17 406
17 407
17 474
17 475
17 582
17 583
18 248
18 249
18 441
18 442
18 516
18 517
19 322
19 323
20 330
20 331
20 640
20 641
21 254
21 255
21 555
21 556
21 668
21 669
22 231
22 232
23 375
23 376
24 252
24 253
24 554
24 555
25 626
25 627
26 294
26 295
26 446
26 447
26 490
26 491
27 253
27 254
28 278
28 279
29 658
29 659
30 610
30 611
31 628
31 629
32 299
32 300
33 352
33 353
34 625
34 626
35 648
35 649
36 384
36 385
36 595
36 596
37 657
37 658
38 237
38 238
39 612
39 613
40 297
40 298
40 431
40 432
40 493
40 494
40 506
40 507
41 383
41 384
42 345
42 346
42 663
42 664
43 653
43 654
44 238
44 239
45 232
45 233
45 396
45 397
45 460
45 461
45 529
45 530
46 360
46 361
47 87
47 303
47 304
47 673
48 326
48 327
48 637
48 638
49 329
49 330
49 430
49 431
49 505
49 506
50 665
50 666
51 228
51 229
51 522
51 523
52 335
52 336
52 411
52 412
52 479
52 480
52 546
52 547
53 635
53 636
54 314
54 315
54 615
54 616
55 624
55 625
56 534
56 535
57 387
57 388
58 283
58 284
59 67
59 324
59 325
59 445
59 520
60 351
60 352
61 338
61 339
61 483
61 484
62 347
62 348
63 587
63 588
63 643
63 644
64 644
64 645
65 367
65 368
65 577
65 578
66 267
66 268
67 340
67 341
67 445
67 520
68 239
68 240
69 656
69 657
70 348
70 349
71 317
71 318
72 361
72 362
72 440
72 441
72 459
72 460
72 515
72 516
73 382
73 383
74 290
74 291
74 413
74 414
74 482
74 483
74 590
74 591
75 633
75 634
76 152
76 364
76 365
76 448
76 676
77 321
77 322
77 439
77 440
77 513
77 514
77 536
77 537
78 614
78 615
79 275
79 276
79 400
79 401
79 466
79 467
79 571
79 572
80 362
80 363
80 618
80 619
81 251
81 252
81 420
81 421
81 433
81 434
81 494
81 495
81 508
81 509
81 553
81 554
82 309
82 310
83 654
83 655
84 358
84 359
84 563
84 564
84 607
84 608
85 355
85 356
85 557
85 558
85 670
85 671
86 652
86 653
87 106
87 304
87 305
87 426
87 502
87 602
87 603
87 673
88 350
88 351
88 556
88 557
88 669
88 670
89 346
89 347
89 419
89 420
89 495
89 496
89 552
89 553
90 378
90 379
90 651
90 652
91 655
91 656
92 363
92 364
92 573
92 574
93 634
93 635
94 262
94 263
95 385
95 386
95 496
95 497
95 666
95 667
96 311
96 312
96 392
96 393
96 434
96 435
96 453
96 454
96 509
96 510
96 526
96 527
97 242
97 243
97 443
97 444
97 471
97 472
97 518
97 519
98 282
98 283
99 320
99 321
100 312
100 313
100 394
100 395
100 455
100 456
100 528
100 529
101 548
101 549
102 376
102 377
103 288
103 289
104 268
104 269
104 436
104 437
104 511
104 512
105 597
105 598
106 170
106 306
106 307
106 426
106 502
106 603
107 277
107 278
108 259
108 260
109 305
109 306
110 377
110 378
111 343
111 344
111 489
111 490
111 662
111 663
112 336
112 337
113 671
113 672
114 616
114 617
115 240
115 241
115 403
115 404
115 468
115 469
115 535
115 536
116 325
116 326
117 357
117 358
117 562
117 563
118 270
118 271
118 567
118 568
119 369
119 370
119 469
119 470
119 578
119 579
120 243
120 244
120 540
120 541
121 271
121 272
121 458
121 459
122 227
122 228
122 389
122 390
122 449
122 450
122 521
122 522
123 379
123 380
124 342
124 343
124 661
124 662
125 274
125 275
125 569
125 570
126 258
126 259
126 422
126 423
126 498
126 499
126 558
126 559
127 269
127 270
127 395
127 396
127 457
127 458
127 566
127 567
128 539
128 540
128 641
128 642
129 339
129 340
129 415
129 416
129 485
129 486
129 549
129 550
130 576
130 577
131 659
131 660
132 313
132 314
133 230
133 231
133 391
133 392
133 452
133 453
133 524
133 525
134 525
134 526
134 608
134 609
135 315
135 316
136 244
136 245
136 410
136 411
136 478
136 479
136 542
136 543
137 620
137 621
138 588
138 589
139 629
139 630
140 291
140 292
140 438
140 439
140 481
140 482
140 514
140 515
141 279
141 280
142 229
142 230
142 390
142 391
142 451
142 452
142 523
142 524
143 247
143 248
143 412
143 413
143 480
143 481
143 547
143 548
144 301
144 302
144 423
144 424
144 499
144 500
144 599
144 600
145 380
145 381
146 606
146 607
147 272
147 273
147 568
147 569
148 622
148 623
149 307
149 308
150 613
150 614
151 298
151 299
151 421
151 422
151 497
151 498
151 596
151 597
152 676
153 331
153 332
153 541
153 542
154 327
154 328
154 408
154 409
154 429
154 430
154 476
154 477
154 504
154 505
154 538
154 539
155 249
155 250
155 417
155 418
155 486
155 487
155 550
155 551
156 250
156 251
156 491
156 492
157 560
157 561
158 370
158 371
158 404
158 405
158 472
158 473
158 580
158 581
159 323
159 324
160 353
160 354
161 631
161 632
162 667
162 668
163 281
163 282
164 611
164 612
165 265
165 266
166 273
166 274
166 621
166 622
167 286
167 287
168 584
168 585
169 289
169 290
169 589
169 590
169 647
169 648
170 175
170 388
170 603
171 374
171 375
172 318
172 319
172 399
172 400
172 464
172 465
172 532
172 533
173 256
173 257
174 263
174 264
174 561
174 562
175 388
175 424
175 425
175 501
175 502
175 600
175 601
176 236
176 237
176 401
176 402
176 465
176 466
176 533
176 534
177 296
177 297
177 664
177 665
178 308
178 309
178 450
178 451
178 604
178 605
179 672
179 673
180 332
180 333
180 645
180 646
181 245
181 246
182 660
182 661
183 276
183 277
183 572
183 573
184 674
184 675
185 333
185 334
186 371
186 372
186 405
186 406
186 473
186 474
186 581
186 582
187 261
187 262
188 365
188 366
188 402
188 403
188 467
188 468
188 574
188 575
189 356
189 357
190 527
190 528
191 260
191 261
191 559
191 560
192 373
192 374
192 409
192 410
192 477
192 478
192 585
192 586
193 543
193 544
194 293
194 294
194 427
194 428
194 488
194 489
195 287
195 288
195 639
195 640
196 264
196 265
196 393
196 394
196 454
196 455
196 565
196 566
197 354
197 355
197 437
197 438
197 512
197 513
198 386
198 387
199 593
199 594
200 285
200 286
200 636
200 637
201 564
201 565
202 366
202 367
202 627
202 628
203 341
203 342
204 319
204 320
205 368
205 369
205 470
205 471
206 372
206 373
206 407
206 408
206 475
206 476
206 583
206 584
207 344
207 345
207 418
207 419
207 492
207 493
207 551
207 552
208 300
208 301
208 598
208 599
209 310
209 311
210 630
210 631
211 381
211 382
211 416
211 417
211 487
211 488
211 592
211 593
212 579
212 580
213 334
213 335
214 292
214 293
214 414
214 415
214 442
214 443
214 484
214 485
214 517
214 518
214 591
214 592
215 295
215 296
216 609
216 610
217 280
217 281
217 575
217 576
218 266
218 267
218 435
218 436
218 447
218 448
218 456
218 457
218 510
218 511
218 675
218 676
219 246
219 247
219 545
219 546
219 649
219 650
220 349
220 350
221 605
221 606
222 428
222 429
222 503
222 504
223 241
223 242
223 537
223 538
224 257
224 258
225 646
225 647
226 594
226 595
227 228
228 229
229 230
230 231
231 232
232 233
233 234
234 235
235 236
236 237
237 238
238 239
239 240
240 241
241 242
242 243
243 244
244 245
245 246
246 247
247 248
248 249
249 250
250 251
251 252
252 253
253 254
254 255
255 256
256 257
257 258
258 259
259 260
260 261
261 262
262 263
263 264
264 265
265 266
266 267
267 268
268 269
269 270
270 271
271 272
272 273
273 274
274 275
275 276
276 277
277 278
278 279
279 280
280 281
281 282
282 283
283 284
284 285
285 286
286 287
287 288
288 289
289 290
290 291
291 292
292 293
293 294
294 295
295 296
296 297
297 298
298 299
299 300
300 301
301 302
302 303
303 304
304 305
305 306
306 307
307 308
308 309
309 310
310 311
311 312
312 313
313 314
314 315
315 316
316 317
317 318
318 319
319 320
320 321
321 322
322 323
323 324
324 325
325 326
326 327
327 328
328 329
329 330
330 331
331 332
332 333
333 334
334 335
335 336
336 337
337 338
338 339
339 340
340 341
341 342
342 343
343 344
344 345
345 346
346 347
347 348
348 349
349 350
350 351
351 352
352 353
353 354
354 355
355 356
356 357
357 358
358 359
359 360
360 361
361 362
362 363
363 364
364 365
365 366
366 367
367 368
368 369
369 370
370 371
371 372
372 373
373 374
374 375
375 376
376 377
377 378
378 379
379 380
380 381
381 382
382 383
383 384
384 385
385 386
386 387
387 388
389 390
390 391
391 392
392 393
393 394
394 395
395 396
396 397
397 398
398 399
399 400
400 401
401 402
402 403
403 404
404 405
405 406
406 407
407 408
408 409
409 410
410 411
411 412
412 413
413 414
414 415
415 416
416 417
417 418
418 419
419 420
420 421
421 422
422 423
423 424
424 425
425 426
427 428
428 429
429 430
430 431
431 432
432 433
433 434
434 435
435 436
436 437
437 438
438 439
439 440
440 441
441 442
442 443
443 444
444 445
446 447
447 448
449 450
450 451
451 452
452 453
453 454
454 455
455 456
456 457
457 458
458 459
459 460
460 461
461 462
462 463
463 464
464 465
465 466
466 467
467 468
468 469
469 470
470 471
471 472
472 473
473 474
474 475
475 476
476 477
477 478
478 479
479 480
480 481
481 482
482 483
483 484
484 485
485 486
486 487
487 488
488 489
489 490
490 491
491 492
492 493
493 494
494 495
495 496
496 497
497 498
498 499
499 500
500 501
501 502
503 504
504 505
505 506
506 507
507 508
508 509
509 510
510 511
511 512
512 513
513 514
514 515
515 516
516 517
517 518
518 519
519 520
521 522
522 523
523 524
524 525
525 526
526 527
527 528
528 529
529 530
530 531
531 532
532 533
533 534
534 535
535 536
536 537
537 538
538 539
539 540
540 541
541 542
542 543
543 544
544 545
545 546
546 547
547 548
548 549
549 550
550 551
551 552
552 553
553 554
554 555
555 556
556 557
557 558
558 559
559 560
560 561
561 562
562 563
563 564
564 565
565 566
566 567
567 568
568 569
569 570
570 571
571 572
572 573
573 574
574 575
575 576
576 577
577 578
578 579
579 580
580 581
581 582
582 583
583 584
584 585
585 586
586 587
587 588
588 589
589 590
590 591
591 592
592 593
593 594
594 595
595 596
596 597
597 598
598 599
599 600
600 601
601 602
602 603
604 605
605 606
606 607
607 608
608 609
609 610
610 611
611 612
612 613
613 614
614 615
615 616
616 617
617 618
618 619
619 620
620 621
621 622
622 623
623 624
624 625
625 626
626 627
627 628
628 629
629 630
630 631
631 632
632 633
633 634
634 635
635 636
636 637
637 638
638 639
639 640
640 641
641 642
642 643
643 644
644 645
645 646
646 647
647 648
648 649
649 650
650 651
651 652
652 653
653 654
654 655
655 656
656 657
657 658
658 659
659 660
660 661
661 662
662 663
663 664
664 665
665 666
666 667
667 668
668 669
669 670
670 671
671 672
672 673
674 675
675 676
